SbTaO4                                  
   1.00000000000000     
     5.0178238574594900    0.0000010052843770   -0.0000386304038708
     0.0000011465202907    5.6242750189096826    0.0000604505889401
    -0.0000907253446685    0.0001278952730105   11.9771108865293865
   Sb   Ta   O 
     4     4    16
Direct
  0.0545414178456777  0.0000024083869774  0.9999993398576155
  0.9454438259523031  0.0000029737543371  0.5000005821521800
  0.4454586666245467  0.4999973037330572  0.0000006321484682
  0.5545564236815280  0.4999969065920045  0.4999995673168244
 -0.0000114650348123  0.3696960064914239  0.2500059888200533
 -0.0000114150008774  0.6302760282696430  0.7499939430171819
  0.5000113602106505  0.8697238793866237  0.2500060688117902
  0.5000115941383693  0.1303040088046227  0.7499940160932602
  0.1654237207556546  0.3286612679233911  0.0949570390774393
  0.8345608767293093  0.6713363061156258  0.5949743116945928
  0.3345588301833212  0.8286704282994185  0.0949581836911892
  0.6654218109089308  0.1713451414371740  0.5949732305619900
  0.7583835567441833  0.0939055926657714  0.1989324909630112
  0.2416178040828554  0.9060974659924153  0.6989695518935625
  0.7416183431416963  0.5939019147628485  0.1989596746800996
  0.2583847619054085  0.4060939686372053  0.6989424845818261
  0.2416153936859272  0.0939059436499044  0.3010575358850361
  0.7583817136359520  0.9060981459556665  0.8010404428812056
  0.2583822835505848  0.5939026081325987  0.3010304528993872
  0.7416162614391958  0.4060943742109007  0.8010676394116328
  0.8345780485941250  0.3286549510744780  0.4050264368876756
  0.1654409708127027  0.6713296535320686  0.9050418360783231
  0.6654392582043912  0.8286638984505351  0.4050257620474516
  0.3345759642084015  0.1713388077413216  0.9050429385482091
 
  0.00000000E+00  0.00000000E+00  0.00000000E+00
  0.00000000E+00  0.00000000E+00  0.00000000E+00
  0.00000000E+00  0.00000000E+00  0.00000000E+00
  0.00000000E+00  0.00000000E+00  0.00000000E+00
  0.00000000E+00  0.00000000E+00  0.00000000E+00
  0.00000000E+00  0.00000000E+00  0.00000000E+00
  0.00000000E+00  0.00000000E+00  0.00000000E+00
  0.00000000E+00  0.00000000E+00  0.00000000E+00
  0.00000000E+00  0.00000000E+00  0.00000000E+00
  0.00000000E+00  0.00000000E+00  0.00000000E+00
  0.00000000E+00  0.00000000E+00  0.00000000E+00
  0.00000000E+00  0.00000000E+00  0.00000000E+00
  0.00000000E+00  0.00000000E+00  0.00000000E+00
  0.00000000E+00  0.00000000E+00  0.00000000E+00
  0.00000000E+00  0.00000000E+00  0.00000000E+00
  0.00000000E+00  0.00000000E+00  0.00000000E+00
  0.00000000E+00  0.00000000E+00  0.00000000E+00
  0.00000000E+00  0.00000000E+00  0.00000000E+00
  0.00000000E+00  0.00000000E+00  0.00000000E+00
  0.00000000E+00  0.00000000E+00  0.00000000E+00
  0.00000000E+00  0.00000000E+00  0.00000000E+00
  0.00000000E+00  0.00000000E+00  0.00000000E+00
  0.00000000E+00  0.00000000E+00  0.00000000E+00
  0.00000000E+00  0.00000000E+00  0.00000000E+00
